(set-info :smt-lib-version 2.6)
(set-logic QF_SLIA)
(set-info :source |
Generated by: Denghang Hu
Generated on: 2023-04-14
Application: Evaluate string solvers
Target solver: Ostrich, Z3str3, CVC5
Description: The instance consists of:
(1) a regular membership predicate from the real world
(2) a regular membership predicate to sanitize danger letters in javascript such as <,>,&,",'
(3) a lower bound for string length
|)
(set-info :license "https://creativecommons.org/licenses/by/4.0/")
(set-info :category "industrial")
(set-info :status unknown)
        ;test regex grep -oP  '.*([0-9]+:){2} *\K.*' file.txt
(declare-const X String)
(assert (str.in_re X (re.++ (str.to_re "g") (re.++ (str.to_re "r") (re.++ (str.to_re "e") (re.++ (str.to_re "p") (re.++ (str.to_re " ") (re.++ (str.to_re "-") (re.++ (str.to_re "o") (re.++ (str.to_re "P") (re.++ (str.to_re " ") (re.++ (str.to_re " ") (re.++ (str.to_re "\u{27}") (re.++ (re.* (re.diff re.allchar (str.to_re "\n"))) (re.++ ((_ re.loop 2 2) (re.++ (re.+ (re.range "0" "9")) (str.to_re ":"))) (re.++ (re.* (str.to_re " ")) (re.++ (str.to_re "K") (re.++ (re.* (re.diff re.allchar (str.to_re "\n"))) (re.++ (str.to_re "\u{27}") (re.++ (str.to_re " ") (re.++ (str.to_re "f") (re.++ (str.to_re "i") (re.++ (str.to_re "l") (re.++ (str.to_re "e") (re.++ (re.diff re.allchar (str.to_re "\n")) (re.++ (str.to_re "t") (re.++ (str.to_re "x") (str.to_re "t"))))))))))))))))))))))))))))
; sanitize danger characters:  < > ' " &
(assert (not (str.in_re X (re.++ re.all (re.union (str.to_re "\u{3c}") (str.to_re "\u{3e}") (str.to_re "\u{27}") (str.to_re "\u{22}") (str.to_re "\u{26}")) re.all))))
(assert (< 20 (str.len X)))
(check-sat)
(exit)
